python/wocstr.nl
g3 1 1 0	# problem unknown
 16 12 1 0 12 	# vars, constraints, objectives, ranges, eqns
 9 1 0 0 0 0	# nonlinear constrs, objs; ccons: lin, nonlin, nd, nzlb
 0 0	# network constraints: nonlinear, linear
 12 14 3 	# nonlinear vars in constraints, objectives, both
 0 0 0 1	# linear network variables; functions; arith, flags
 0 0 0 0 0 	# discrete variables: binary, integer, nonlinear (b,c,o)
 55 7 	# nonzeros in Jacobian, obj. gradient
 0 0	# max name lengths: constraints, variables
 0 0 0 0 0	# common exprs: b,c,o,c1,o1
S4 2 homotopy_destination
12 1
13 1
S4 2 homotopy_origin
12 0.8
13 0.8
C0
o0
o2
n-1
o2
v0
v5
o2
o2
n-100
o3
o2
o2
v9
v5
v6
n100
v3
C1
o54
3
o2
n-1
o2
v0
v6
o2
o2
n-100
o3
o2
o2
v9
v5
v6
n100
v3
o2
o2
n-100
o3
o2
o2
v10
v6
v7
n100
v3
C2
o54
4
o2
o2
n200
o3
o2
o2
v9
v5
v6
n100
v3
o2
o2
n-200
o3
o2
o2
v10
v6
v7
n100
v3
o2
o2
n-200
o3
o2
o2
v11
v7
v2
n200
v3
o2
n-1
o2
v0
v7
C3
o0
o2
n-1
o2
v0
v1
o2
o2
n200
o3
o2
o2
v10
v6
v7
n100
v3
C4
o0
o2
n-1
o2
v0
v8
o2
o2
n300
o3
o2
o2
v11
v7
v2
n200
v3
C5
o54
3
o2
o2
n100
o3
o2
o2
v10
v6
v7
n100
v3
o2
o2
n-100
o3
o2
o2
v11
v7
v2
n200
v3
o2
n-1
o2
v0
v2
C6
o2
n-16599000.0
o44
o3
n-6666.7
o0
v4
n273.15
C7
o2
n-7211700000.0
o44
o3
n-8333.3
o0
v4
n273.15
C8
o2
n-26745000000000.0
o44
o3
n-11111
o0
v4
n273.15
C9
n0
C10
n0
C11
n0
O0 0
o54
5
o0
o2
n-1
o2
o2
n1143.38
v0
v2
o2
n-1
o2
o2
n25.92
v0
v1
o2
v12
v12
o2
n-1
o2
v12
v12
o2
v13
v13
o2
n-1
o2
v13
v13
x10
0 5
3 2105
4 90
9 0.1
10 0.1
11 0.1
12 1
13 1
14 1.8275
15 4
r
4 0.0
4 0.0
4 0.0
4 0.0
4 0.0
4 0.0
4 0.0
4 0.0
4 0.0
4 0.0
4 0.0
4 0.0
b
2 0
0 0 1
0 0 1
0 1800 2300
0 70 100
0 0 1
0 0 1
0 0 1
0 0 1
3
3
3
3
3
3
0 3 6
k15
7
8
11
18
21
24
29
34
35
39
44
48
49
50
53
J0 6
14 1
3 0
0 0
5 0
6 0
9 0
J1 8
15 1
3 0
0 0
5 0
6 0
7 0
9 0
10 0
J2 9
3 0
0 0
5 0
6 0
7 0
2 0
9 0
10 0
11 0
J3 6
3 0
0 0
6 0
7 0
1 0
10 0
J4 6
3 0
0 0
7 0
8 0
2 0
11 0
J5 7
3 0
0 0
6 0
7 0
2 0
10 0
11 0
J6 2
9 10.0
4 0
J7 2
10 10.0
4 0
J8 2
11 10.0
4 0
J9 2
12 1
14 -0.5471956224350205
J10 2
13 1
3 -0.00047505938242280285
J11 3
14 1
15 1
0 -1
G0 7
0 0
1 0
2 0
12 0
13 0
14 76.23
15 114.34
