python/wocstr.sol
 
Ipopt 3.14.5: Solved To Acceptable Level.

Options
3
1
1
0
12
12
16
16
76.22999895601953
208.23817901398792
142.2340895971405
25.92000001447586
8.085723142700541e-08
733.2093710599747
-4.2257509748811445e-05
-2320.396100773598
2050.432162395622
0
0
1.043980490869327e-06
8.09246003959754
0.40173409545758615
0.14316500031960802
-124432739525.76044
69.99999931277985
-9.836706348033316e-09
0.2819947740939625
-2.2620056519251313e-09
0.17310614222755524
0.006062220764012348
0.02047952368404973
0.02317589824713986
1.1449849417910996
-59112940.39228524
2.0924599811232345
6.0000000584743045
objno 0 1
suffix 4 8 13 0 0
ipopt_zU_out
1 -2.3945873752965264e-07
2 -1.6719671696980133e-07
4 -4.7753330848770415e-09
5 -1.4325999776154299e-07
6 -1.9952500823001988e-07
7 -1.4325999884669458e-07
8 -1.7325077157637552e-07
15 -93.89818010572172
suffix 4 9 13 0 0
ipopt_zL_out
0 1.770289871378162e-08
1 3.5660402902604553e-07
2 1.000663502091254e-06
4 11.20983748826711
5 877.3151857279614
6 5.080235830022102e-07
7 18.51384146319402
8 8.275846858119072e-07
15 4.775333212613555e-08
