python/wocstr.log

******************************************************************************
This program contains Ipopt, a library for large-scale nonlinear optimization.
 Ipopt is released as open source code under the Eclipse Public License (EPL).
         For more information visit https://github.com/coin-or/Ipopt
******************************************************************************

This is Ipopt version 3.14.5, running with linear solver ma27.

Number of nonzeros in equality constraint Jacobian...:       55
Number of nonzeros in inequality constraint Jacobian.:        0
Number of nonzeros in Lagrangian Hessian.............:       25

Total number of variables............................:       16
                     variables with only lower bounds:        1
                variables with lower and upper bounds:        8
                     variables with only upper bounds:        0
Total number of equality constraints.................:       12
Total number of inequality constraints...............:        0
        inequality constraints with only lower bounds:        0
   inequality constraints with lower and upper bounds:        0
        inequality constraints with only upper bounds:        0

iter    objective    inf_pr   inf_du lg(mu)  ||d||  lg(rg) alpha_du alpha_pr  ls
   0  5.3820538e+02 3.91e+00 2.17e+00  -1.0 0.00e+00    -  0.00e+00 0.00e+00   0
   1 -4.5435201e+02 1.03e+01 1.99e+04  -1.0 6.97e+00  -4.0 2.80e-02 1.00e+00f  1
   2 -1.9792923e+02 1.04e+00 1.97e+04  -1.0 8.00e-01   1.8 6.05e-01 1.00e+00h  1
   3 -2.1306433e+02 1.42e-01 4.41e+02  -1.0 4.37e-01   1.4 1.00e+00 1.00e+00h  1
   4 -2.0103905e+02 6.74e-03 4.93e+00  -1.0 8.69e-02   0.9 1.00e+00 1.00e+00h  1
   5 -2.7162018e+02 3.06e-01 9.18e+00  -1.0 3.59e+03    -  6.17e-01 2.50e-01f  1
   6 -3.9704478e+02 2.52e+00 1.56e+02  -1.0 5.42e+03    -  1.00e+00 4.49e-01f  1
   7 -3.1539851e+02 2.48e+00 1.45e+02  -1.0 2.06e+00   1.3 9.54e-02 1.72e-02h  4
   8 -2.5651056e+02 2.47e+00 1.50e+02  -1.0 2.50e+00   2.6 5.61e-02 4.49e-03h  4
   9 -9.0244312e+02 2.40e+00 5.89e+03  -1.0 5.24e+00   2.2 1.39e-02 2.42e-02f  1
iter    objective    inf_pr   inf_du lg(mu)  ||d||  lg(rg) alpha_du alpha_pr  ls
  10 -9.0910439e+02 2.39e+00 5.87e+03  -1.0 1.40e+00   1.7 5.22e-01 2.59e-03h  1
  11 -1.0061890e+03 2.12e+00 4.84e+03  -1.0 2.78e+03    -  2.22e-02 2.18e-01f  1
  12 -9.3411833e+02 1.97e+00 6.57e+03  -1.0 7.50e+03    -  6.72e-02 2.47e-01h  1
  13 -9.0847016e+02 1.93e+00 6.51e+03  -1.0 2.41e+00   1.2 1.40e-02 1.48e-02H  1
  14 -8.9535623e+02 1.93e+00 6.51e+03  -1.0 2.48e+02   1.6 4.83e-05 1.32e-04f  7
  15 -6.6001972e+02 1.88e+00 7.02e+03  -1.0 5.73e+00   2.1 8.78e-03 3.92e-02h  3
  16 -3.5473204e+02 1.55e+00 6.14e+03  -1.0 6.60e-01   1.6 1.00e+00 1.85e-01h  3
  17 -2.4501321e+02 1.13e+00 4.60e+03  -1.0 4.13e-01   1.1 1.23e-01 2.50e-01h  3
  18 -2.4117194e+02 1.11e+00 4.53e+03  -1.0 1.90e-01   1.5 1.00e+00 1.56e-02h  7
  19 -2.3773031e+02 1.08e+00 4.39e+03  -1.0 6.60e-01   1.1 1.72e-01 3.12e-02h  6
iter    objective    inf_pr   inf_du lg(mu)  ||d||  lg(rg) alpha_du alpha_pr  ls
  20 -2.3730153e+02 1.07e+00 4.38e+03  -1.0 1.99e-01   1.5 1.00e+00 1.95e-03h 10
  21 -2.0030209e+02 9.31e-01 1.92e+03  -1.0 8.75e-01   1.0 1.53e-01 1.00e+00h  1
  22 -3.1271528e+02 2.33e-01 5.53e+02  -1.0 1.81e-01   1.4 1.00e+00 1.00e+00f  1
  23 -3.2339945e+02 4.41e-02 2.56e+01  -1.0 1.62e-01   1.0 1.00e+00 1.00e+00h  1
  24 -4.4486222e+02 8.20e-02 4.67e+01  -1.0 3.16e+04    -  8.85e-02 1.07e-01f  1
  25 -4.5426713e+02 2.77e+00 2.62e+02  -1.0 6.84e+03    -  1.00e+00 1.00e+00f  1
  26 -6.1937418e+02 3.85e+00 5.18e+02  -1.0 1.04e+05    -  1.00e+00 6.08e-01f  1
  27 -5.4196087e+02 1.12e+00 2.43e+02  -1.0 2.22e-01   0.5 1.00e+00 1.00e+00h  1
  28 -5.4562978e+02 6.74e-01 6.92e+01  -1.0 3.79e+04    -  1.00e+00 1.00e+00h  1
  29 -5.4306056e+02 1.25e-03 2.71e-01  -1.0 1.14e-02   0.0 1.00e+00 1.00e+00h  1
iter    objective    inf_pr   inf_du lg(mu)  ||d||  lg(rg) alpha_du alpha_pr  ls
  30 -5.6086579e+02 3.61e+00 3.86e+02  -1.7 1.20e+05    -  1.00e+00 9.99e-01f  1
  31 -5.5835790e+02 3.03e+00 3.68e+02  -1.7 6.64e+06    -  1.92e-01 1.08e-01h  2
  32 -5.5639931e+02 1.90e+00 1.73e+03  -1.7 6.38e+05    -  1.53e-01 1.00e+00h  1
  33 -5.5766465e+02 1.62e-01 3.39e+02  -1.7 3.82e+05    -  1.00e+00 1.00e+00h  1
  34 -5.5993529e+02 2.53e-01 6.89e+01  -1.7 3.29e+05    -  1.00e+00 1.00e+00h  1
  35 -5.5910548e+02 1.71e+00 1.85e+02  -1.7 5.89e+05    -  1.00e+00 1.00e+00h  1
  36 -5.5863435e+02 3.28e-01 3.48e+01  -1.7 1.65e+05    -  1.00e+00 1.00e+00h  1
  37 -5.5885968e+02 1.65e-02 1.79e+00  -1.7 1.59e+04    -  1.00e+00 1.00e+00h  1
  38 -5.5883579e+02 8.94e-05 9.74e-03  -1.7 1.51e+03    -  1.00e+00 1.00e+00h  1
  39 -5.6333121e+02 3.60e+00 3.92e+02  -3.8 4.68e+05    -  1.00e+00 1.00e+00f  1
iter    objective    inf_pr   inf_du lg(mu)  ||d||  lg(rg) alpha_du alpha_pr  ls
  40 -5.3879754e+02 3.35e+00 3.41e+02  -3.8 2.94e+07    -  1.04e-01 8.20e-02H  1
  41 -1.0313234e+02 1.83e+00 9.83e+04  -3.8 1.87e+00  -0.5 2.03e-04 5.98e-01h  1
  42 -6.2214367e+02 6.62e-01 3.88e+04  -3.8 4.85e-01  -1.0 2.63e-01 1.00e+00f  1
  43 -6.2219678e+02 6.62e-01 5.37e+04  -3.8 1.89e+01  -1.4 2.85e-01 2.99e-04h  1
  44 -7.3531613e+02 1.33e+00 1.68e+04  -3.8 3.09e+06    -  1.00e+00 1.00e+00f  1
  45 -5.7120519e+02 1.02e-01 1.84e+04  -3.8 2.13e-01  -1.9 1.00e+00 1.00e+00h  1
  46 -5.6390139e+02 2.10e-02 1.41e+03  -3.8 6.36e+05    -  1.00e+00 1.00e+00h  1
  47 -5.6320316e+02 5.01e-06 1.81e-01  -3.8 2.20e-04  -2.4 1.00e+00 1.00e+00h  1
  48 -5.6321324e+02 1.29e-02 1.42e+00  -3.8 3.05e+06    -  1.00e+00 1.25e-01h  4
  49 -5.6321787e+02 1.51e-02 1.97e+00  -3.8 3.17e+06    -  1.00e+00 6.25e-02h  5
iter    objective    inf_pr   inf_du lg(mu)  ||d||  lg(rg) alpha_du alpha_pr  ls
  50 -5.6322230e+02 1.72e-02 2.30e+00  -3.8 3.23e+06    -  1.00e+00 6.25e-02h  5
  51 -5.6322658e+02 1.91e-02 2.43e+00  -3.8 3.30e+06    -  1.00e+00 6.25e-02h  5
  52 -5.6323073e+02 2.08e-02 2.50e+00  -3.8 3.39e+06    -  1.00e+00 6.25e-02h  5
  53 -5.6329504e+02 7.51e-01 8.20e+01  -3.8 3.49e+06    -  1.00e+00 1.00e+00h  1
  54 -5.6333483e+02 1.01e+00 1.10e+02  -3.8 8.08e+06    -  1.00e+00 1.00e+00h  1
  55 -5.6334798e+02 6.25e-01 6.83e+01  -3.8 1.35e+07    -  1.00e+00 1.00e+00h  1
  56 -5.6335362e+02 4.87e-01 5.32e+01  -3.8 1.67e+07    -  1.00e+00 1.00e+00h  1
  57 -5.6335456e+02 5.30e-02 5.79e+00  -3.8 1.11e+07    -  1.00e+00 1.00e+00h  1
  58 -5.6335471e+02 2.93e-03 3.20e-01  -3.8 2.21e+06    -  1.00e+00 1.00e+00h  1
  59 -5.6335470e+02 3.69e-07 4.03e-05  -3.8 3.97e+04    -  1.00e+00 1.00e+00h  1
iter    objective    inf_pr   inf_du lg(mu)  ||d||  lg(rg) alpha_du alpha_pr  ls
  60 -5.6338868e+02 3.64e+00 3.97e+02  -5.7 6.21e+07    -  1.00e+00 1.00e+00h  1
  61 -5.6338868e+02 3.50e-01 8.21e+01  -5.7 5.60e+09    -  1.00e+00 1.00e+00h  1
  62 -5.6338866e+02 3.87e-02 7.09e+00  -5.7 5.27e+08    -  1.00e+00 1.00e+00h  1
  63 -5.6338868e+02 2.40e-02 2.48e+00  -5.7 4.41e+08    -  1.00e+00 1.00e+00h  1
  64 -5.6338868e+02 4.86e-04 5.54e-02  -5.7 8.56e+07    -  1.00e+00 1.00e+00h  1
  65 -5.6338868e+02 6.94e-08 7.08e-06  -5.7 1.24e+06    -  1.00e+00 1.00e+00h  1
  66 -5.6338907e+02 4.07e+00 4.45e+02  -8.6 6.37e+09    -  1.00e+00 9.41e-01h  1
  67 -5.6338907e+02 1.16e-01 8.83e+02  -8.6 1.34e+11    -  1.00e+00 1.00e+00h  1
  68 -5.6338909e+02 8.89e-04 1.77e+01  -8.6 2.40e+09    -  1.00e+00 1.00e+00h  1
  69 -5.6338909e+02 7.99e-08 5.47e-03  -8.6 3.84e+07    -  1.00e+00 1.00e+00h  1
iter    objective    inf_pr   inf_du lg(mu)  ||d||  lg(rg) alpha_du alpha_pr  ls
  70 -5.6338909e+02 7.45e-09 1.08e-07  -8.6 1.00e+04    -  1.00e+00 1.00e+00h  1
  71 -5.6338909e+02 2.22e-16 1.06e-06  -8.6 6.05e+01    -  1.00e+00 1.00e+00h  1
  72 -5.6338909e+02 4.44e-16 2.75e-06  -8.6 3.36e+01    -  1.00e+00 1.00e+00h  1
  73 -5.6338909e+02 6.51e-16 1.06e-06  -8.6 4.20e+01    -  1.00e+00 1.00e+00h  1
  74 -5.6338909e+02 7.45e-09 1.08e-07  -8.6 2.04e+00    -  1.00e+00 5.00e-01h  2
  75 -5.6338909e+02 7.45e-09 1.80e-06  -8.6 5.75e+01    -  1.00e+00 2.50e-01h  3
  76 -5.6338909e+02 1.78e-15 2.02e-06  -8.6 5.99e+01    -  1.00e+00 1.00e+00h  1
  77 -5.6338909e+02 1.78e-15 1.08e-07  -8.6 4.20e+01    -  1.00e+00 2.50e-01h  3
  78 -5.6338909e+02 1.78e-15 3.52e-07  -8.6 7.65e+01    -  1.00e+00 2.50e-01h  3
  79 -5.6338909e+02 4.44e-16 2.75e-06  -8.6 5.74e+01    -  1.00e+00 1.00e+00H  1
iter    objective    inf_pr   inf_du lg(mu)  ||d||  lg(rg) alpha_du alpha_pr  ls
  80 -5.6338909e+02 7.45e-09 2.02e-06  -8.6 1.12e+02    -  1.00e+00 1.00e+00h  1
  81 -5.6338909e+02 1.78e-15 1.94e-07  -8.6 1.19e+02    -  1.00e+00 1.00e+00h  1
  82 -5.6338909e+02 1.53e-15 2.02e-06  -8.6 1.46e+01    -  1.00e+00 1.00e+00h  1
  83 -5.6338909e+02 7.45e-09 1.80e-06  -8.6 5.49e+01    -  1.00e+00 1.00e+00H  1
  84 -5.6338909e+02 8.88e-16 2.97e-06  -8.6 5.39e+01    -  1.00e+00 1.00e+00h  1
  85 -5.6338909e+02 1.33e-15 3.25e-07  -8.6 9.95e+01    -  1.00e+00 5.00e-01h  2
  86 -5.6338909e+02 6.66e-16 2.02e-06  -8.6 1.23e+02    -  1.00e+00 2.50e-01h  3
  87 -5.6338909e+02 2.22e-16 1.80e-06  -8.6 6.88e+00    -  1.00e+00 1.00e+00h  1
  88 -5.6338909e+02 2.22e-16 1.80e-06  -8.6 5.80e+01    -  1.00e+00 1.25e-01h  4
  89 -5.6338909e+02 2.22e-16 1.80e-06  -8.6 2.28e+01    -  1.00e+00 7.81e-03h  8
iter    objective    inf_pr   inf_du lg(mu)  ||d||  lg(rg) alpha_du alpha_pr  ls
  90 -5.6338909e+02 2.22e-16 1.80e-06  -8.6 5.06e+01    -  1.00e+00 3.12e-02h  6
  91 -5.6338909e+02 2.22e-16 8.60e-07  -8.6 9.30e+01    -  1.00e+00 2.44e-04h 13
  92 -5.6338909e+02 2.22e-16 2.75e-06  -8.6 4.06e+01    -  1.00e+00 5.00e-01h  2
  93 -5.6338909e+02 1.78e-15 8.45e-07  -8.6 8.28e+01    -  1.00e+00 1.00e+00h  1
  94 -5.6338909e+02 7.45e-09 1.06e-06  -8.6 4.92e+01    -  1.00e+00 1.00e+00h  1
  95 -5.6338909e+02 5.44e-16 2.02e-06  -8.6 6.68e+01    -  1.00e+00 5.00e-01h  2
  96 -5.6338909e+02 4.44e-16 8.45e-07  -8.6 1.39e+02    -  1.00e+00 1.00e+00H  1
  97 -5.6338909e+02 1.78e-15 1.06e-06  -8.6 1.20e+02    -  1.00e+00 1.00e+00h  1
  98 -5.6338909e+02 7.45e-09 1.08e-07  -8.6 9.27e+00    -  1.00e+00 1.00e+00h  1
  99 -5.6338909e+02 1.46e-15 8.45e-07  -8.6 4.25e+01    -  1.00e+00 5.00e-01h  2
iter    objective    inf_pr   inf_du lg(mu)  ||d||  lg(rg) alpha_du alpha_pr  ls
 100 -5.6338909e+02 7.45e-09 8.45e-07  -8.6 2.38e+01    -  1.00e+00 2.50e-01h  3
 101 -5.6338909e+02 7.45e-09 2.02e-06  -8.6 7.02e+01    -  1.00e+00 1.00e+00h  1
 102 -5.6338909e+02 7.45e-09 5.52e-07  -8.6 9.64e+01    -  1.00e+00 5.00e-01h  2
 103 -5.6338909e+02 7.45e-09 8.45e-07  -8.6 2.28e+01    -  1.00e+00 1.00e+00h  1
 104 -5.6338909e+02 6.71e-16 1.06e-06  -8.6 2.95e+01    -  1.00e+00 1.00e+00H  1
 105 -5.6338909e+02 1.01e-15 1.06e-06  -8.6 7.51e+01    -  1.00e+00 2.50e-01h  3
 106 -5.6338909e+02 1.78e-15 1.75e-07  -8.6 1.12e+02    -  1.00e+00 1.00e+00H  1
 107 -5.6338909e+02 4.44e-16 1.06e-06  -8.6 1.71e+01    -  1.00e+00 1.00e+00h  1
 108 -5.6338909e+02 8.88e-16 1.06e-06  -8.6 2.57e+00    -  1.00e+00 2.50e-01h  3
 109 -5.6338909e+02 8.88e-16 2.02e-06  -8.6 4.59e+01    -  1.00e+00 5.00e-01h  2
iter    objective    inf_pr   inf_du lg(mu)  ||d||  lg(rg) alpha_du alpha_pr  ls
 110 -5.6338909e+02 4.65e-16 2.02e-06  -8.6 3.45e+01    -  1.00e+00 5.00e-01h  2
 111 -5.6338909e+02 1.42e-15 1.06e-06  -8.6 3.33e+01    -  1.00e+00 3.12e-02h  6
 112 -5.6338909e+02 1.34e-15 8.45e-07  -8.6 5.73e+01    -  1.00e+00 1.00e+00h  1
 113 -5.6338909e+02 3.04e-16 8.45e-07  -8.6 1.13e+02    -  1.00e+00 1.00e+00H  1
 114 -5.6338909e+02 5.46e-16 1.08e-07  -8.6 1.36e+02    -  1.00e+00 1.00e+00h  1
 115 -5.6338909e+02 7.45e-09 1.14e-07  -8.6 4.51e+01    -  1.00e+00 1.00e+00H  1
 116 -5.6338909e+02 7.45e-09 3.02e-07  -8.6 5.59e+01    -  1.00e+00 2.50e-01h  3
 117 -5.6338909e+02 2.22e-16 1.08e-07  -8.6 2.06e+00    -  1.00e+00 5.00e-01h  2
 118 -5.6338909e+02 4.44e-16 1.06e-06  -8.6 4.30e+01    -  1.00e+00 1.00e+00h  1
 119 -5.6338909e+02 4.44e-16 1.08e-07  -8.6 1.35e+01    -  1.00e+00 3.12e-02h  6
iter    objective    inf_pr   inf_du lg(mu)  ||d||  lg(rg) alpha_du alpha_pr  ls
 120 -5.6338909e+02 4.44e-16 1.75e-07  -8.6 1.65e+01    -  1.00e+00 1.00e+00H  1
 121 -5.6338909e+02 1.78e-15 1.08e-07  -8.6 6.79e+01    -  1.00e+00 1.00e+00H  1
 122 -5.6338909e+02 1.78e-15 2.02e-06  -8.6 3.58e+01    -  1.00e+00 1.00e+00H  1
 123 -5.6338909e+02 1.78e-15 1.08e-07  -8.6 3.89e+01    -  1.00e+00 5.00e-01h  2
 124 -5.6338909e+02 4.44e-16 8.45e-07  -8.6 5.25e+01    -  1.00e+00 1.00e+00H  1
 125 -5.6338909e+02 1.78e-15 8.45e-07  -8.6 6.94e+01    -  1.00e+00 1.00e+00h  1
 126 -5.6338909e+02 7.45e-09 1.06e-06  -8.6 3.99e+01    -  1.00e+00 5.00e-01h  2
 127 -5.6338909e+02 1.78e-15 4.52e-07  -8.6 6.29e+01    -  1.00e+00 2.50e-01h  3
 128 -5.6338909e+02 7.45e-09 8.45e-07  -8.6 1.03e+01    -  1.00e+00 5.00e-01h  2
 129 -5.6338909e+02 8.88e-16 1.06e-06  -8.6 1.86e+01    -  1.00e+00 1.00e+00h  1
iter    objective    inf_pr   inf_du lg(mu)  ||d||  lg(rg) alpha_du alpha_pr  ls
 130 -5.6338909e+02 5.71e-16 1.80e-06  -8.6 2.69e+01    -  1.00e+00 1.00e+00h  1
 131 -5.6338909e+02 2.22e-16 2.02e-06  -8.6 1.00e+02    -  1.00e+00 1.00e+00h  1
 132 -5.6338909e+02 1.35e-15 8.45e-07  -8.6 1.38e+02    -  1.00e+00 1.00e+00h  1
 133 -5.6338909e+02 1.78e-15 8.45e-07  -8.6 7.62e+01    -  1.00e+00 5.00e-01h  2
 134 -5.6338909e+02 1.78e-15 8.45e-07  -8.6 1.78e+01    -  1.00e+00 1.00e+00h  1
 135 -5.6338909e+02 4.44e-16 2.02e-06  -8.6 4.40e+01    -  1.00e+00 1.00e+00h  1
 136 -5.6338909e+02 4.67e-16 8.45e-07  -8.6 7.25e+01    -  1.00e+00 1.00e+00h  1
 137 -5.6338909e+02 6.84e-16 1.06e-06  -8.6 6.84e+01    -  1.00e+00 5.00e-01h  2
 138 -5.6338909e+02 2.22e-16 1.71e-07  -8.6 3.52e+01    -  1.00e+00 5.00e-01h  2
 139 -5.6338909e+02 2.22e-16 8.45e-07  -8.6 5.28e+01    -  1.00e+00 5.00e-01h  2
iter    objective    inf_pr   inf_du lg(mu)  ||d||  lg(rg) alpha_du alpha_pr  ls
 140 -5.6338909e+02 8.88e-16 2.02e-06  -8.6 7.51e+01    -  1.00e+00 1.00e+00h  1
 141 -5.6338909e+02 4.44e-16 1.80e-06  -8.6 6.84e+01    -  1.00e+00 1.00e+00H  1
 142 -5.6338909e+02 7.45e-09 8.45e-07  -8.6 3.41e+01    -  1.00e+00 1.00e+00H  1
 143 -5.6338909e+02 7.45e-09 8.45e-07  -8.6 2.64e+01    -  1.00e+00 2.50e-01h  3
 144 -5.6338909e+02 7.45e-09 1.80e-06  -8.6 4.78e+01    -  1.00e+00 2.50e-01h  3
 145 -5.6338909e+02 4.44e-16 1.24e-07  -8.6 1.25e+02    -  1.00e+00 1.00e+00h  1
 146 -5.6338909e+02 2.22e-16 8.45e-07  -8.6 7.46e+01    -  1.00e+00 1.25e-01h  4
 147 -5.6338909e+02 9.93e-16 3.92e-06  -8.6 3.58e+01    -  1.00e+00 5.00e-01h  2
 148 -5.6338909e+02 7.45e-09 2.75e-06  -8.6 9.35e+01    -  1.00e+00 1.00e+00H  1
 149 -5.6338909e+02 6.81e-16 1.08e-07  -8.6 3.42e+01    -  1.00e+00 1.00e+00h  1
iter    objective    inf_pr   inf_du lg(mu)  ||d||  lg(rg) alpha_du alpha_pr  ls
 150 -5.6338909e+02 2.37e-16 1.06e-06  -8.6 1.25e+01    -  1.00e+00 1.25e-01h  4
 151 -5.6338909e+02 9.86e-16 8.45e-07  -8.6 1.96e+01    -  1.00e+00 5.00e-01h  2
 152 -5.6338909e+02 7.68e-16 1.06e-06  -8.6 5.28e+01    -  1.00e+00 5.00e-01h  2
 153 -5.6338909e+02 1.78e-15 8.45e-07  -8.6 6.06e+01    -  1.00e+00 1.00e+00H  1
 154 -5.6338909e+02 1.78e-15 8.45e-07  -8.6 1.71e+01    -  1.00e+00 2.50e-01h  3
 155 -5.6338909e+02 1.24e-15 1.08e-07  -8.6 3.24e+00    -  1.00e+00 1.00e+00H  1
 156 -5.6338909e+02 2.41e-16 2.02e-06  -8.6 1.55e+00    -  1.00e+00 1.00e+00H  1
 157 -5.6338909e+02 7.96e-16 1.06e-06  -8.6 1.50e+01    -  1.00e+00 1.25e-01h  4
 158 -5.6338909e+02 4.44e-16 1.06e-06  -8.6 7.64e+01    -  1.00e+00 1.00e+00H  1
 159 -5.6338909e+02 8.88e-16 1.06e-06  -8.6 3.99e+01    -  1.00e+00 1.00e+00h  1
iter    objective    inf_pr   inf_du lg(mu)  ||d||  lg(rg) alpha_du alpha_pr  ls
 160 -5.6338909e+02 1.43e-15 8.45e-07  -8.6 1.60e+01    -  1.00e+00 6.25e-02h  5
 161 -5.6338909e+02 9.86e-16 1.08e-07  -8.6 4.40e+01    -  1.00e+00 1.25e-01h  4
 162 -5.6338909e+02 1.32e-15 1.06e-06  -8.6 1.90e+01    -  1.00e+00 1.25e-01h  4
 163 -5.6338909e+02 6.50e-16 8.45e-07  -8.6 6.22e+01    -  1.00e+00 2.50e-01h  3
 164 -5.6338909e+02 2.22e-16 1.06e-06  -8.6 4.04e+01    -  1.00e+00 1.00e+00H  1
 165 -5.6338909e+02 4.44e-16 8.45e-07  -8.6 8.70e+01    -  1.00e+00 1.00e+00H  1
 166 -5.6338909e+02 4.44e-16 8.45e-07  -8.6 5.15e+00    -  1.00e+00 5.00e-01h  2
 167 -5.6338909e+02 1.78e-15 1.80e-06  -8.6 5.34e+01    -  1.00e+00 1.00e+00H  1
 168 -5.6338909e+02 6.66e-16 8.45e-07  -8.6 2.17e+01    -  1.00e+00 1.00e+00H  1
 169 -5.6338909e+02 8.88e-16 2.97e-06  -8.6 2.95e+01    -  1.00e+00 1.00e+00H  1
iter    objective    inf_pr   inf_du lg(mu)  ||d||  lg(rg) alpha_du alpha_pr  ls
 170 -5.6338909e+02 1.78e-15 2.75e-06  -8.6 6.21e+01    -  1.00e+00 1.00e+00h  1
 171 -5.6338909e+02 1.78e-15 8.45e-07  -8.6 6.89e+01    -  1.00e+00 5.00e-01h  2
 172 -5.6338909e+02 1.87e-15 1.80e-06  -8.6 2.05e+01    -  1.00e+00 2.50e-01h  3
 173 -5.6338909e+02 1.33e-15 8.45e-07  -8.6 7.42e+01    -  1.00e+00 2.50e-01h  3
 174 -5.6338909e+02 1.78e-15 2.97e-06  -8.6 1.30e+02    -  1.00e+00 1.00e+00h  1
 175 -5.6338909e+02 7.45e-09 3.01e-07  -8.6 1.06e+02    -  1.00e+00 1.00e+00h  1
 176 -5.6338909e+02 5.73e-16 1.44e-07  -8.6 4.39e+01    -  1.00e+00 5.00e-01h  2
 177 -5.6338909e+02 4.44e-16 1.80e-06  -8.6 5.92e+00    -  1.00e+00 2.50e-01h  3
 178 -5.6338909e+02 4.44e-16 1.06e-06  -8.6 7.06e+01    -  1.00e+00 1.00e+00H  1
 179 -5.6338909e+02 4.44e-16 1.06e-06  -8.6 5.65e+01    -  1.00e+00 1.25e-01h  4
iter    objective    inf_pr   inf_du lg(mu)  ||d||  lg(rg) alpha_du alpha_pr  ls
 180 -5.6338909e+02 4.44e-16 1.08e-07  -8.6 7.74e+01    -  1.00e+00 1.00e+00h  1
 181 -5.6338909e+02 7.58e-16 1.06e-06  -8.6 3.73e+01    -  1.00e+00 1.25e-01h  4
 182 -5.6338909e+02 7.45e-09 1.28e-07  -8.6 1.19e+02    -  1.00e+00 1.00e+00h  1
 183 -5.6338909e+02 1.78e-15 1.08e-07  -8.6 7.41e+01    -  1.00e+00 5.00e-01h  2
 184 -5.6338909e+02 8.88e-16 7.98e-07  -8.6 1.17e+02    -  1.00e+00 1.25e-01h  4
 185 -5.6338909e+02 4.44e-16 1.08e-07  -8.6 1.45e+00    -  1.00e+00 1.00e+00H  1
 186 -5.6338909e+02 1.57e-15 8.45e-07  -8.6 6.01e+01    -  1.00e+00 1.00e+00h  1
 187 -5.6338909e+02 1.02e-15 8.45e-07  -8.6 9.35e+00    -  1.00e+00 1.25e-01h  4
 188 -5.6338909e+02 2.22e-16 2.52e-07  -8.6 3.58e+01    -  1.00e+00 1.25e-01h  4
 189 -5.6338909e+02 1.57e-15 8.45e-07  -8.6 8.13e-01    -  1.00e+00 1.00e+00h  1
iter    objective    inf_pr   inf_du lg(mu)  ||d||  lg(rg) alpha_du alpha_pr  ls
 190 -5.6338909e+02 5.37e-16 1.80e-06  -8.6 1.35e+01    -  1.00e+00 2.50e-01h  3
 191 -5.6338909e+02 1.34e-15 1.06e-06  -8.6 8.36e+01    -  1.00e+00 1.00e+00h  1
 192 -5.6338909e+02 4.44e-16 1.08e-07  -8.6 8.03e+01    -  1.00e+00 1.00e+00h  1
 193 -5.6338909e+02 1.78e-15 2.02e-06  -8.6 3.47e+01    -  1.00e+00 5.00e-01h  2
 194 -5.6338909e+02 1.78e-15 8.45e-07  -8.6 4.39e+00    -  1.00e+00 1.00e+00H  1
 195 -5.6338909e+02 4.44e-16 1.80e-06  -8.6 1.55e+01    -  1.00e+00 1.00e+00H  1
 196 -5.6338909e+02 8.88e-16 1.06e-06  -8.6 5.75e+01    -  1.00e+00 5.00e-01h  2
 197 -5.6338909e+02 1.69e-15 2.02e-06  -8.6 4.38e+01    -  1.00e+00 2.50e-01h  3
 198 -5.6338909e+02 1.78e-15 8.45e-07  -8.6 2.57e+01    -  1.00e+00 1.00e+00h  1
 199 -5.6338909e+02 1.78e-15 1.80e-06  -8.6 5.28e-01    -  1.00e+00 5.00e-01h  2
iter    objective    inf_pr   inf_du lg(mu)  ||d||  lg(rg) alpha_du alpha_pr  ls
 200 -5.6338909e+02 7.45e-09 2.02e-06  -8.6 4.58e+01    -  1.00e+00 1.00e+00h  1
 201 -5.6338909e+02 6.66e-16 1.08e-07  -8.6 1.58e+02    -  1.00e+00 1.00e+00h  1
 202 -5.6338909e+02 6.44e-16 8.45e-07  -8.6 7.46e+01    -  1.00e+00 1.00e+00h  1
 203 -5.6338909e+02 8.88e-16 1.06e-06  -8.6 3.78e+01    -  1.00e+00 1.00e+00h  1
 204 -5.6338909e+02 6.49e-16 6.90e-07  -8.6 5.49e+01    -  1.00e+00 3.12e-02h  6
 205 -5.6338909e+02 8.88e-16 2.02e-06  -8.6 7.63e+00    -  1.00e+00 1.56e-02h  7
 206 -5.6338909e+02 4.44e-16 2.75e-06  -8.6 8.26e+01    -  1.00e+00 1.00e+00h  1
 207 -5.6338909e+02 8.88e-16 1.06e-06  -8.6 1.23e+02    -  1.00e+00 1.00e+00h  1
 208 -5.6338909e+02 4.44e-16 1.08e-07  -8.6 4.98e+01    -  1.00e+00 1.00e+00H  1
 209 -5.6338909e+02 4.44e-16 1.06e-06  -8.6 4.66e+01    -  1.00e+00 1.00e+00h  1
iter    objective    inf_pr   inf_du lg(mu)  ||d||  lg(rg) alpha_du alpha_pr  ls
 210 -5.6338909e+02 2.22e-16 1.06e-06  -8.6 1.04e+01    -  1.00e+00 4.88e-04h 12
 211 -5.6338909e+02 7.45e-09 1.41e-07  -8.6 1.14e+02    -  1.00e+00 1.00e+00h  1
 212 -5.6338909e+02 7.45e-09 1.80e-06  -8.6 2.23e+01    -  1.00e+00 5.00e-01h  2
 213 -5.6338909e+02 1.78e-15 3.60e-07  -8.6 5.62e+01    -  1.00e+00 2.50e-01h  3
 214 -5.6338909e+02 1.78e-15 8.45e-07  -8.6 4.11e+01    -  1.00e+00 1.25e-01h  4
 215 -5.6338909e+02 1.78e-15 1.80e-06  -8.6 9.86e+01    -  1.00e+00 1.25e-01h  4
 216 -5.6338909e+02 1.78e-15 1.80e-06  -8.6 3.13e+01    -  1.00e+00 2.50e-01h  3
 217 -5.6338909e+02 1.78e-15 1.52e-07  -8.6 4.52e+00    -  1.00e+00 1.00e+00H  1
 218 -5.6338909e+02 4.44e-16 1.06e-06  -8.6 1.71e+01    -  1.00e+00 1.00e+00h  1
 219 -5.6338909e+02 1.79e-15 2.02e-06  -8.6 4.56e+01    -  1.00e+00 5.00e-01h  2
iter    objective    inf_pr   inf_du lg(mu)  ||d||  lg(rg) alpha_du alpha_pr  ls
 220 -5.6338909e+02 1.78e-15 8.45e-07  -8.6 6.83e+01    -  1.00e+00 1.00e+00H  1
 221 -5.6338909e+02 2.10e-15 1.94e-07  -8.6 8.44e+01    -  1.00e+00 1.00e+00h  1
 222 -5.6338909e+02 8.75e-16 2.02e-06  -8.6 2.13e+01    -  1.00e+00 2.50e-01h  3
 223 -5.6338909e+02 7.61e-16 1.06e-06  -8.6 3.10e+01    -  1.00e+00 5.00e-01h  2
 224 -5.6338909e+02 2.22e-16 2.02e-06  -8.6 2.60e+01    -  1.00e+00 1.25e-01h  4
 225 -5.6338909e+02 1.78e-15 1.06e-06  -8.6 6.81e+00    -  1.00e+00 5.00e-01h  2
 226 -5.6338909e+02 4.44e-16 8.45e-07  -8.6 5.41e+01    -  1.00e+00 1.00e+00H  1
 227 -5.6338909e+02 7.45e-09 1.06e-06  -8.6 4.09e+01    -  1.00e+00 1.00e+00h  1
 228 -5.6338909e+02 4.44e-16 8.45e-07  -8.6 5.90e+01    -  1.00e+00 5.00e-01h  2
 229 -5.6338909e+02 7.45e-09 1.06e-06  -8.6 4.14e+01    -  1.00e+00 1.00e+00h  1
iter    objective    inf_pr   inf_du lg(mu)  ||d||  lg(rg) alpha_du alpha_pr  ls
 230 -5.6338909e+02 7.45e-09 1.08e-07  -8.6 1.15e+02    -  1.00e+00 1.00e+00h  1
 231 -5.6338909e+02 1.90e-15 8.45e-07  -8.6 1.21e+02    -  1.00e+00 1.00e+00h  1
 232 -5.6338909e+02 9.92e-16 2.02e-06  -8.6 2.58e+01    -  1.00e+00 1.00e+00h  1
 233 -5.6338909e+02 1.78e-15 2.75e-06  -8.6 1.00e+02    -  1.00e+00 1.00e+00H  1
 234 -5.6338909e+02 1.78e-15 1.06e-06  -8.6 9.53e+01    -  1.00e+00 1.00e+00H  1
 235 -5.6338909e+02 1.78e-15 3.33e-07  -8.6 1.14e+02    -  1.00e+00 2.50e-01h  3
 236 -5.6338909e+02 8.69e-16 8.45e-07  -8.6 8.80e+01    -  1.00e+00 5.00e-01h  2
 237 -5.6338909e+02 5.37e-16 1.08e-07  -8.6 1.35e+01    -  1.00e+00 2.50e-01h  3
 238 -5.6338909e+02 1.78e-15 8.45e-07  -8.6 4.06e+01    -  1.00e+00 1.00e+00h  1
 239 -5.6338909e+02 7.45e-09 1.08e-07  -8.6 3.36e+01    -  1.00e+00 1.00e+00h  1
iter    objective    inf_pr   inf_du lg(mu)  ||d||  lg(rg) alpha_du alpha_pr  ls
 240 -5.6338909e+02 1.33e-15 1.80e-06  -8.6 8.55e+01    -  1.00e+00 1.56e-02h  7
 241 -5.6338909e+02 1.33e-15 2.02e-06  -8.6 8.51e+01    -  1.00e+00 1.00e+00h  1
 242 -5.6338909e+02 5.47e-16 1.98e-07  -8.6 8.18e+01    -  1.00e+00 1.00e+00h  1
 243 -5.6338909e+02 8.88e-16 8.45e-07  -8.6 2.07e+01    -  1.00e+00 1.00e+00H  1
 244 -5.6338909e+02 1.78e-15 2.02e-06  -8.6 1.86e+01    -  1.00e+00 1.00e+00H  1
 245 -5.6338909e+02 1.09e-15 8.45e-07  -8.6 6.06e+01    -  1.00e+00 2.50e-01h  3
 246 -5.6338909e+02 8.88e-16 4.02e-07  -8.6 7.11e+01    -  1.00e+00 2.50e-01h  3
 247 -5.6338909e+02 1.10e-15 1.06e-06  -8.6 4.17e+00    -  1.00e+00 1.00e+00H  1
 248 -5.6338909e+02 2.09e-15 1.06e-06  -8.6 4.56e+01    -  1.00e+00 2.50e-01h  3
 249 -5.6338909e+02 7.45e-09 4.52e-07  -8.6 7.82e+01    -  1.00e+00 2.50e-01h  3
iter    objective    inf_pr   inf_du lg(mu)  ||d||  lg(rg) alpha_du alpha_pr  ls
 250 -5.6338909e+02 1.33e-15 2.75e-06  -8.6 8.92e+01    -  1.00e+00 2.50e-01h  3
 251 -5.6338909e+02 7.45e-09 3.95e-07  -8.6 9.37e+01    -  1.00e+00 5.00e-01h  2
 252 -5.6338909e+02 7.45e-09 8.45e-07  -8.6 9.64e+00    -  1.00e+00 1.00e+00h  1
 253 -5.6338909e+02 6.81e-16 2.02e-06  -8.6 2.95e+01    -  1.00e+00 5.00e-01h  2
 254 -5.6338909e+02 1.35e-15 1.80e-06  -8.6 1.37e+01    -  1.00e+00 1.00e+00h  1
 255 -5.6338909e+02 1.02e-15 1.80e-06  -8.6 1.40e+01    -  1.00e+00 2.50e-01h  3
 256 -5.6338909e+02 7.45e-09 2.02e-06  -8.6 1.46e+01    -  1.00e+00 1.00e+00h  1
 257 -5.6338909e+02 1.33e-15 1.08e-07  -8.6 4.61e+01    -  1.00e+00 1.00e+00h  1
 258 -5.6338909e+02 1.78e-15 1.08e-07  -8.6 3.11e+01    -  1.00e+00 2.50e-01h  3
 259 -5.6338909e+02 1.78e-15 8.45e-07  -8.6 3.26e+01    -  1.00e+00 1.00e+00H  1
iter    objective    inf_pr   inf_du lg(mu)  ||d||  lg(rg) alpha_du alpha_pr  ls
 260 -5.6338909e+02 2.66e-15 1.06e-06  -8.6 1.86e+01    -  1.00e+00 1.00e+00h  1
Cannot call restoration phase at almost feasible point,
but acceptable point from iteration 259 could be restored.

Number of Iterations....: 260

                                   (scaled)                 (unscaled)
Objective...............:  -9.8548004284698472e+00   -5.6338908569519276e+02
Dual infeasibility......:   8.4522860448448651e-07    4.8320874089773616e-05
Constraint violation....:   1.7763568394002505e-15    1.7763568394002505e-15
Variable bound violation:   6.8722015100775025e-07    6.8722015100775025e-07
Complementarity.........:   2.5059042903759913e-09    1.4326004237650508e-07
Overall NLP error.......:   8.4522860448448651e-07    4.8320874089773616e-05


Number of objective function evaluations             = 707
Number of objective gradient evaluations             = 262
Number of equality constraint evaluations            = 707
Number of inequality constraint evaluations          = 0
Number of equality constraint Jacobian evaluations   = 262
Number of inequality constraint Jacobian evaluations = 0
Number of Lagrangian Hessian evaluations             = 261
Total seconds in IPOPT                               = 0.195

EXIT: Solved To Acceptable Level.
